(declare-sort sk 0)
(declare-sort fun1 0)
(declare-sort fun12 0)
(declare-sort fun13 0)
(declare-datatype list ((nil) (cons (head sk) (tail list))))
(declare-fun lam (sk) fun13)
(declare-const lam2 fun12)
(declare-fun apply1 (fun1 sk) sk)
(declare-fun apply12 (fun12 sk) fun13)
(declare-fun apply13 (fun13 sk) Bool)
(define-fun-rec
  elem
  ((x sk) (y list)) Bool
  (match y
    ((nil false)
     ((cons z xs) (or (= z x) (elem x xs))))))
(define-fun-rec
  deleteBy
  ((x fun12) (y sk) (z list)) list
  (match z
    ((nil nil)
     ((cons y2 ys)
      (ite (apply13 (apply12 x y) y2) ys (cons y2 (deleteBy x y ys)))))))
(define-fun-rec
  isPermutation
  ((x list) (y list)) Bool
  (match x
    ((nil
      (match y
        ((nil true)
         ((cons z x2) false))))
     ((cons x3 xs)
      (and (elem x3 y) (isPermutation xs (deleteBy lam2 x3 y)))))))
(assert (forall ((x4 sk)) (= (apply12 lam2 x4) (lam x4))))
(assert
  (forall ((x4 sk) (x5 sk)) (= (apply13 (lam x4) x5) (= x4 x5))))
(assert
  (not
    (forall ((xs list) (ys list))
      (=> (isPermutation xs ys) (isPermutation ys xs)))))
(check-sat)
